(set-info :source |printed by MathSAT|)
(declare-fun |.x{930}| () Int)
(declare-fun |.x{1273}| () Int)
(declare-fun |.x{963}| () (Array Int Int))
(declare-fun |.x{1274}| () (Array Int Int))
(declare-fun |.x{932}| () (Array Int Int))
(declare-fun |.x{1275}| () (Array Int Int))
(declare-fun |.x{933}| () (Array Int (Array Int Int)))
(declare-fun |.x{1276}| () (Array Int (Array Int Int)))
(declare-fun |.x{934}| () (Array Int (Array Int Int)))
(declare-fun |.x{1277}| () (Array Int (Array Int Int)))
(declare-fun |.x{935}| () Int)
(declare-fun |.x{1278}| () Int)
(declare-fun |.x{936}| () Int)
(declare-fun |.x{1279}| () Int)
(declare-fun |.x{937}| () (Array Int Int))
(declare-fun |.x{1280}| () (Array Int Int))
(declare-fun |.x{938}| () (Array Int Int))
(declare-fun |.x{1281}| () (Array Int Int))
(declare-fun |.x{939}| () Int)
(declare-fun |.x{1282}| () Int)
(declare-fun |.x{940}| () Int)
(declare-fun |.x{1283}| () Int)
(declare-fun |.x{941}| () Int)
(declare-fun |.x{1284}| () Int)
(declare-fun |.x{974}| () Int)
(declare-fun |.x{1285}| () Int)
(declare-fun |.x{975}| () Int)
(declare-fun |.x{1286}| () Int)
(declare-fun |.x{944}| () Int)
(declare-fun |.x{1287}| () Int)
(declare-fun |.x{945}| () Int)
(declare-fun |.x{1288}| () Int)
(declare-fun |.x{946}| () Int)
(declare-fun |.x{1289}| () Int)
(declare-fun |.x{947}| () Int)
(declare-fun |.x{1290}| () Int)
(declare-fun |.x{948}| () Int)
(declare-fun |.x{1291}| () Int)
(declare-fun |.x{949}| () Int)
(declare-fun |.x{1292}| () Int)
(declare-fun |.x{950}| () Int)
(declare-fun |.x{1293}| () Int)
(declare-fun |.x{951}| () Int)
(declare-fun |.x{1294}| () Int)
(declare-fun |.x{952}| () Int)
(declare-fun |.x{1295}| () Int)
(declare-fun |.x{953}| () Int)
(declare-fun |.x{1296}| () Int)
(declare-fun |.x{986}| () Int)
(declare-fun |.x{1297}| () Int)
(declare-fun |.x{955}| () Int)
(declare-fun |.x{1298}| () Int)
(declare-fun |.x{988}| () Int)
(declare-fun |.x{1299}| () Int)
(declare-fun |.x{957}| () Int)
(declare-fun |.x{1300}| () Int)
(declare-fun |.x{990}| () Int)
(declare-fun |.x{1301}| () Int)
(declare-fun |.x{959}| () Int)
(declare-fun |.x{1302}| () Int)
(declare-fun |.x{960}| () Int)
(declare-fun |.x{1303}| () Int)
(declare-fun |.x{961}| () Bool)
(declare-fun |.x{1304}| () Bool)
(declare-fun |.loc{4}| () Bool)
(declare-fun |.loc{7}| () Bool)
(declare-fun |.loc{5}| () Bool)
(declare-fun |.loc{8}| () Bool)
(declare-fun |.loc{6}| () Bool)
(declare-fun |.loc{9}| () Bool)
(declare-fun |.x{127}| () (Array Int Int))
(define-fun .def_76 () Bool (! |.loc{6}| :next |.loc{9}|))
(define-fun .def_86 () Bool (not .def_76))
(define-fun .def_72 () Bool (! |.loc{4}| :next |.loc{7}|))
(define-fun .def_79 () Bool (not .def_72))
(define-fun .def_74 () Bool (! |.loc{5}| :next |.loc{8}|))
(define-fun .def_78 () Bool (not .def_74))
(define-fun .def_80 () Bool (and .def_78 .def_79))
(define-fun .def_389 () Bool (and .def_80 .def_86))
(define-fun .def_16 () (Array Int (Array Int Int)) (! |.x{934}| :next |.x{1277}|))
(define-fun .def_14 () (Array Int (Array Int Int)) (! |.x{933}| :next |.x{1276}|))
(define-fun .def_383 () Bool (= .def_14 .def_16))
(define-fun .def_70 () Bool (! |.x{961}| :next |.x{1304}|))
(define-fun .def_382 () Bool (not .def_70))
(define-fun .def_384 () Bool (and .def_382 .def_383))
(define-fun .def_28 () Int (! |.x{940}| :next |.x{1283}|))
(define-fun .def_26 () Int (! |.x{939}| :next |.x{1282}|))
(define-fun .def_381 () Bool (= .def_26 .def_28))
(define-fun .def_385 () Bool (and .def_381 .def_384))
(define-fun .def_20 () Int (! |.x{936}| :next |.x{1279}|))
(define-fun .def_18 () Int (! |.x{935}| :next |.x{1278}|))
(define-fun .def_380 () Bool (= .def_18 .def_20))
(define-fun .def_386 () Bool (and .def_380 .def_385))
(define-fun .def_24 () (Array Int Int) (! |.x{938}| :next |.x{1281}|))
(define-fun .def_22 () (Array Int Int) (! |.x{937}| :next |.x{1280}|))
(define-fun .def_379 () Bool (= .def_22 .def_24))
(define-fun .def_387 () Bool (and .def_379 .def_386))
(define-fun .def_12 () (Array Int Int) (! |.x{932}| :next |.x{1275}|))
(define-fun .def_10 () (Array Int Int) (! |.x{963}| :next |.x{1274}|))
(define-fun .def_378 () Bool (= .def_10 .def_12))
(define-fun .def_388 () Bool (and .def_378 .def_387))
(define-fun .def_390 () Bool (! (and .def_388 .def_389) :init true))
(define-fun .def_375 () Bool (= .def_28 |.x{1283}|))
(define-fun .def_373 () Bool (= .def_24 |.x{1281}|))
(define-fun .def_371 () Bool (= .def_20 |.x{1279}|))
(define-fun .def_369 () Bool (= .def_16 |.x{1277}|))
(define-fun .def_367 () Bool (= .def_12 |.x{1275}|))
(define-fun .def_8 () Int (! |.x{930}| :next |.x{1273}|))
(define-fun .def_365 () Bool (= .def_8 |.x{1273}|))
(define-fun .def_364 () Bool (= .def_70 |.x{1304}|))
(define-fun .def_366 () Bool (and .def_364 .def_365))
(define-fun .def_368 () Bool (and .def_366 .def_367))
(define-fun .def_370 () Bool (and .def_368 .def_369))
(define-fun .def_372 () Bool (and .def_370 .def_371))
(define-fun .def_374 () Bool (and .def_372 .def_373))
(define-fun .def_376 () Bool (and .def_374 .def_375))
(define-fun .def_50 () Int (! |.x{951}| :next |.x{1294}|))
(define-fun .def_361 () Bool (= .def_50 |.x{1294}|))
(define-fun .def_48 () Int (! |.x{950}| :next |.x{1293}|))
(define-fun .def_359 () Bool (= .def_48 |.x{1293}|))
(define-fun .def_42 () Int (! |.x{947}| :next |.x{1290}|))
(define-fun .def_357 () Bool (= .def_42 |.x{1290}|))
(define-fun .def_40 () Int (! |.x{946}| :next |.x{1289}|))
(define-fun .def_355 () Bool (= .def_40 |.x{1289}|))
(define-fun .def_38 () Int (! |.x{945}| :next |.x{1288}|))
(define-fun .def_353 () Bool (= .def_38 |.x{1288}|))
(define-fun .def_30 () Int (! |.x{941}| :next |.x{1284}|))
(define-fun .def_351 () Bool (= .def_30 |.x{1284}|))
(define-fun .def_349 () Bool (= .def_26 |.x{1282}|))
(define-fun .def_347 () Bool (= .def_22 |.x{1280}|))
(define-fun .def_345 () Bool (= .def_18 |.x{1278}|))
(define-fun .def_62 () Int (! |.x{957}| :next |.x{1300}|))
(define-fun .def_342 () Bool (= .def_62 |.x{1300}|))
(define-fun .def_68 () Int (! |.x{960}| :next |.x{1303}|))
(define-fun .def_341 () Bool (= .def_68 |.x{1303}|))
(define-fun .def_343 () Bool (and .def_341 .def_342))
(define-fun .def_64 () Int (! |.x{990}| :next |.x{1301}|))
(define-fun .def_34 () Int (! |.x{975}| :next |.x{1286}|))
(define-fun .def_321 () (Array Int Int) (store .def_10 .def_34 0))
(define-fun .def_322 () (Array Int Int) (store .def_321 .def_64 0))
(define-fun .def_323 () Bool (= |.x{1274}| .def_322))
(define-fun .def_320 () Bool (= |.x{1299}| 0))
(define-fun .def_324 () Bool (and .def_320 .def_323))
(define-fun .def_325 () Bool (or .def_70 .def_324))
(define-fun .def_318 () Bool (= |.x{1296}| |.x{1299}|))
(define-fun .def_319 () Bool (or |.x{1304}| .def_318))
(define-fun .def_326 () Bool (and .def_319 .def_325))
(define-fun .def_327 () Bool (and .def_76 .def_326))
(define-fun .def_328 () Bool (and .def_79 .def_327))
(define-fun .def_329 () Bool (and .def_78 .def_328))
(define-fun .def_330 () Bool (and |.loc{7}| .def_329))
(define-fun .def_296 () Bool (and .def_72 .def_74))
(define-fun .def_308 () Bool (and .def_70 .def_296))
(define-fun .def_213 () Bool (not |.loc{7}|))
(define-fun .def_309 () Bool (and .def_213 .def_308))
(define-fun .def_310 () Bool (and .def_86 .def_309))
(define-fun .def_185 () Bool (= .def_64 |.x{1301}|))
(define-fun .def_311 () Bool (and .def_185 .def_310))
(define-fun .def_60 () Int (! |.x{988}| :next |.x{1299}|))
(define-fun .def_187 () Bool (= .def_60 |.x{1299}|))
(define-fun .def_312 () Bool (and .def_187 .def_311))
(define-fun .def_56 () Int (! |.x{986}| :next |.x{1297}|))
(define-fun .def_189 () Bool (= .def_56 |.x{1297}|))
(define-fun .def_313 () Bool (and .def_189 .def_312))
(define-fun .def_54 () Int (! |.x{953}| :next |.x{1296}|))
(define-fun .def_90 () Bool (= .def_54 |.x{1296}|))
(define-fun .def_314 () Bool (and .def_90 .def_313))
(define-fun .def_193 () Bool (= .def_34 |.x{1286}|))
(define-fun .def_315 () Bool (and .def_193 .def_314))
(define-fun .def_32 () Int (! |.x{974}| :next |.x{1285}|))
(define-fun .def_195 () Bool (= .def_32 |.x{1285}|))
(define-fun .def_316 () Bool (and .def_195 .def_315))
(define-fun .def_197 () Bool (= .def_10 |.x{1274}|))
(define-fun .def_317 () Bool (and .def_197 .def_316))
(define-fun .def_331 () Bool (or .def_317 .def_330))
(define-fun .def_52 () Int (! |.x{952}| :next |.x{1295}|))
(define-fun .def_259 () Bool (<= 100000 .def_52))
(define-fun .def_306 () Bool (or .def_70 .def_259))
(define-fun .def_297 () Bool (and .def_213 .def_296))
(define-fun .def_298 () Bool (and .def_86 .def_297))
(define-fun .def_299 () Bool (and .def_185 .def_298))
(define-fun .def_300 () Bool (and .def_187 .def_299))
(define-fun .def_301 () Bool (and .def_189 .def_300))
(define-fun .def_302 () Bool (and .def_90 .def_301))
(define-fun .def_303 () Bool (and .def_193 .def_302))
(define-fun .def_304 () Bool (and .def_195 .def_303))
(define-fun .def_305 () Bool (and .def_197 .def_304))
(define-fun .def_307 () Bool (and .def_305 .def_306))
(define-fun .def_332 () Bool (or .def_307 .def_331))
(define-fun .def_66 () Int (! |.x{959}| :next |.x{1302}|))
(define-fun .def_160 () Bool (= .def_66 |.x{1302}|))
(define-fun .def_158 () Bool (= .def_52 |.x{1295}|))
(define-fun .def_207 () Bool (and .def_158 .def_160))
(define-fun .def_81 () Bool (= .def_14 |.x{1276}|))
(define-fun .def_293 () Bool (and .def_81 .def_207))
(define-fun .def_294 () Bool (and |.loc{9}| .def_293))
(define-fun .def_84 () Bool (not |.loc{8}|))
(define-fun .def_295 () Bool (and .def_84 .def_294))
(define-fun .def_333 () Bool (and .def_295 .def_332))
(define-fun .def_46 () Int (! |.x{949}| :next |.x{1292}|))
(define-fun .def_199 () Bool (= .def_46 |.x{1292}|))
(define-fun .def_334 () Bool (and .def_199 .def_333))
(define-fun .def_288 () Int (* (- 1) |.x{1295}|))
(define-fun .def_289 () Int (+ .def_52 .def_288))
(define-fun .def_290 () Bool (= .def_289 (- 1)))
(define-fun .def_291 () Bool (or |.x{1304}| .def_290))
(define-fun .def_261 () Int (* 4 .def_52))
(define-fun .def_262 () Int (+ .def_32 .def_261))
(define-fun .def_263 () (Array Int Int) (select .def_14 .def_64))
(define-fun .def_264 () Int (select .def_263 .def_262))
(define-fun .def_269 () Int (+ .def_264 (- 1)))
(define-fun .def_268 () Int (+ .def_261 .def_56))
(define-fun .def_267 () (Array Int Int) (select .def_14 .def_34))
(define-fun .def_270 () (Array Int Int) (store .def_267 .def_268 .def_269))
(define-fun .def_271 () (Array Int (Array Int Int)) (store .def_14 .def_34 .def_270))
(define-fun .def_272 () Bool (= |.x{1276}| .def_271))
(define-fun .def_260 () Bool (not .def_259))
(define-fun .def_273 () Bool (and .def_260 .def_272))
(define-fun .def_274 () Bool (or .def_70 .def_273))
(define-fun .def_275 () Bool (and .def_72 .def_274))
(define-fun .def_276 () Bool (and .def_74 .def_275))
(define-fun .def_277 () Bool (and |.loc{7}| .def_276))
(define-fun .def_278 () Bool (and |.loc{8}| .def_277))
(define-fun .def_279 () Bool (and .def_86 .def_278))
(define-fun .def_280 () Bool (and .def_185 .def_279))
(define-fun .def_281 () Bool (and .def_187 .def_280))
(define-fun .def_282 () Bool (and .def_189 .def_281))
(define-fun .def_88 () Bool (not |.loc{9}|))
(define-fun .def_283 () Bool (and .def_88 .def_282))
(define-fun .def_284 () Bool (and .def_90 .def_283))
(define-fun .def_285 () Bool (and .def_193 .def_284))
(define-fun .def_286 () Bool (and .def_195 .def_285))
(define-fun .def_287 () Bool (and .def_197 .def_286))
(define-fun .def_292 () Bool (and .def_287 .def_291))
(define-fun .def_335 () Bool (or .def_292 .def_334))
(define-fun .def_241 () Bool (= |.x{1295}| 0))
(define-fun .def_242 () Bool (or .def_70 .def_241))
(define-fun .def_243 () Bool (and .def_160 .def_242))
(define-fun .def_244 () Bool (and .def_74 .def_243))
(define-fun .def_245 () Bool (and .def_79 .def_244))
(define-fun .def_246 () Bool (and .def_81 .def_245))
(define-fun .def_247 () Bool (and |.loc{7}| .def_246))
(define-fun .def_248 () Bool (and |.loc{8}| .def_247))
(define-fun .def_249 () Bool (and .def_86 .def_248))
(define-fun .def_250 () Bool (and .def_185 .def_249))
(define-fun .def_251 () Bool (and .def_187 .def_250))
(define-fun .def_252 () Bool (and .def_189 .def_251))
(define-fun .def_253 () Bool (and .def_88 .def_252))
(define-fun .def_254 () Bool (and .def_90 .def_253))
(define-fun .def_255 () Bool (and .def_193 .def_254))
(define-fun .def_256 () Bool (and .def_195 .def_255))
(define-fun .def_257 () Bool (and .def_197 .def_256))
(define-fun .def_258 () Bool (and .def_199 .def_257))
(define-fun .def_336 () Bool (or .def_258 .def_335))
(define-fun .def_225 () Bool (and .def_72 .def_207))
(define-fun .def_226 () Bool (and .def_70 .def_225))
(define-fun .def_227 () Bool (and .def_78 .def_226))
(define-fun .def_228 () Bool (and .def_81 .def_227))
(define-fun .def_229 () Bool (and |.loc{8}| .def_228))
(define-fun .def_230 () Bool (and .def_213 .def_229))
(define-fun .def_231 () Bool (and .def_86 .def_230))
(define-fun .def_232 () Bool (and .def_185 .def_231))
(define-fun .def_233 () Bool (and .def_187 .def_232))
(define-fun .def_234 () Bool (and .def_189 .def_233))
(define-fun .def_235 () Bool (and .def_88 .def_234))
(define-fun .def_236 () Bool (and .def_90 .def_235))
(define-fun .def_237 () Bool (and .def_193 .def_236))
(define-fun .def_238 () Bool (and .def_195 .def_237))
(define-fun .def_239 () Bool (and .def_197 .def_238))
(define-fun .def_240 () Bool (and .def_199 .def_239))
(define-fun .def_337 () Bool (or .def_240 .def_336))
(define-fun .def_58 () Int (! |.x{955}| :next |.x{1298}|))
(define-fun .def_163 () Bool (<= 100000 .def_58))
(define-fun .def_206 () Bool (or .def_70 .def_163))
(define-fun .def_208 () Bool (and .def_206 .def_207))
(define-fun .def_209 () Bool (and .def_72 .def_208))
(define-fun .def_210 () Bool (and .def_78 .def_209))
(define-fun .def_211 () Bool (and .def_81 .def_210))
(define-fun .def_212 () Bool (and |.loc{8}| .def_211))
(define-fun .def_214 () Bool (and .def_212 .def_213))
(define-fun .def_215 () Bool (and .def_86 .def_214))
(define-fun .def_216 () Bool (and .def_185 .def_215))
(define-fun .def_217 () Bool (and .def_187 .def_216))
(define-fun .def_218 () Bool (and .def_189 .def_217))
(define-fun .def_219 () Bool (and .def_88 .def_218))
(define-fun .def_220 () Bool (and .def_90 .def_219))
(define-fun .def_221 () Bool (and .def_193 .def_220))
(define-fun .def_222 () Bool (and .def_195 .def_221))
(define-fun .def_223 () Bool (and .def_197 .def_222))
(define-fun .def_224 () Bool (and .def_199 .def_223))
(define-fun .def_338 () Bool (or .def_224 .def_337))
(define-fun .def_44 () Int (! |.x{948}| :next |.x{1291}|))
(define-fun .def_204 () Bool (= .def_44 |.x{1291}|))
(define-fun .def_36 () Int (! |.x{944}| :next |.x{1287}|))
(define-fun .def_202 () Bool (= .def_36 |.x{1287}|))
(define-fun .def_201 () Bool (= .def_58 |.x{1298}|))
(define-fun .def_203 () Bool (and .def_201 .def_202))
(define-fun .def_205 () Bool (and .def_203 .def_204))
(define-fun .def_339 () Bool (and .def_205 .def_338))
(define-fun .def_166 () Int (* 4 .def_58))
(define-fun .def_167 () Int (+ .def_30 .def_166))
(define-fun .def_168 () (Array Int Int) (select .def_14 .def_38))
(define-fun .def_169 () Int (select .def_168 .def_167))
(define-fun .def_173 () Int (+ .def_169 1))
(define-fun .def_171 () Int (+ .def_40 .def_166))
(define-fun .def_172 () (Array Int Int) (select .def_14 .def_48))
(define-fun .def_174 () (Array Int Int) (store .def_172 .def_171 .def_173))
(define-fun .def_175 () (Array Int (Array Int Int)) (store .def_14 .def_48 .def_174))
(define-fun .def_176 () Bool (= |.x{1276}| .def_175))
(define-fun .def_164 () Bool (not .def_163))
(define-fun .def_177 () Bool (and .def_164 .def_176))
(define-fun .def_178 () Bool (or .def_70 .def_177))
(define-fun .def_154 () Int (* (- 1) |.x{1298}|))
(define-fun .def_155 () Int (+ .def_58 .def_154))
(define-fun .def_156 () Bool (= .def_155 (- 1)))
(define-fun .def_157 () Bool (or |.x{1304}| .def_156))
(define-fun .def_159 () Bool (and .def_157 .def_158))
(define-fun .def_161 () Bool (and .def_159 .def_160))
(define-fun .def_179 () Bool (and .def_161 .def_178))
(define-fun .def_180 () Bool (and .def_72 .def_179))
(define-fun .def_181 () Bool (and .def_78 .def_180))
(define-fun .def_182 () Bool (and |.loc{7}| .def_181))
(define-fun .def_183 () Bool (and .def_84 .def_182))
(define-fun .def_184 () Bool (and .def_86 .def_183))
(define-fun .def_186 () Bool (and .def_184 .def_185))
(define-fun .def_188 () Bool (and .def_186 .def_187))
(define-fun .def_190 () Bool (and .def_188 .def_189))
(define-fun .def_191 () Bool (and .def_88 .def_190))
(define-fun .def_192 () Bool (and .def_90 .def_191))
(define-fun .def_194 () Bool (and .def_192 .def_193))
(define-fun .def_196 () Bool (and .def_194 .def_195))
(define-fun .def_198 () Bool (and .def_196 .def_197))
(define-fun .def_200 () Bool (and .def_198 .def_199))
(define-fun .def_340 () Bool (or .def_200 .def_339))
(define-fun .def_344 () Bool (and .def_340 .def_343))
(define-fun .def_346 () Bool (and .def_344 .def_345))
(define-fun .def_348 () Bool (and .def_346 .def_347))
(define-fun .def_350 () Bool (and .def_348 .def_349))
(define-fun .def_352 () Bool (and .def_350 .def_351))
(define-fun .def_354 () Bool (and .def_352 .def_353))
(define-fun .def_356 () Bool (and .def_354 .def_355))
(define-fun .def_358 () Bool (and .def_356 .def_357))
(define-fun .def_360 () Bool (and .def_358 .def_359))
(define-fun .def_362 () Bool (and .def_360 .def_361))
(define-fun .def_148 () Bool (= |.x{1282}| 0))
(define-fun .def_147 () Bool (= |.x{1278}| 0))
(define-fun .def_149 () Bool (and .def_147 .def_148))
(define-fun .def_145 () (Array Int Int) (store .def_10 0 0))
(define-fun .def_146 () Bool (= |.x{127}| .def_145))
(define-fun .def_150 () Bool (and .def_146 .def_149))
(define-fun .def_151 () Bool (or .def_70 .def_150))
(define-fun .def_128 () (Array Int Int) (store .def_22 |.x{1286}| 400000))
(define-fun .def_129 () (Array Int Int) (store .def_128 |.x{1301}| 400000))
(define-fun .def_130 () Bool (= |.x{1280}| .def_129))
(define-fun .def_123 () Bool (<= |.x{1273}| |.x{1301}|))
(define-fun .def_124 () Bool (not .def_123))
(define-fun .def_118 () Bool (<= |.x{1273}| |.x{1286}|))
(define-fun .def_119 () Bool (not .def_118))
(define-fun .def_116 () Bool (= |.x{1289}| |.x{1303}|))
(define-fun .def_115 () Bool (= |.x{1285}| |.x{1303}|))
(define-fun .def_117 () Bool (and .def_115 .def_116))
(define-fun .def_120 () Bool (and .def_117 .def_119))
(define-fun .def_113 () Int (select |.x{127}| |.x{1286}|))
(define-fun .def_114 () Bool (= .def_113 0))
(define-fun .def_121 () Bool (and .def_114 .def_120))
(define-fun .def_112 () Bool (= |.x{1285}| 0))
(define-fun .def_122 () Bool (and .def_112 .def_121))
(define-fun .def_125 () Bool (and .def_122 .def_124))
(define-fun .def_111 () Bool (= |.x{1297}| |.x{1300}|))
(define-fun .def_126 () Bool (and .def_111 .def_125))
(define-fun .def_131 () Bool (and .def_126 .def_130))
(define-fun .def_110 () Bool (= |.x{1293}| |.x{1294}|))
(define-fun .def_132 () Bool (and .def_110 .def_131))
(define-fun .def_109 () Bool (= |.x{1294}| |.x{1301}|))
(define-fun .def_133 () Bool (and .def_109 .def_132))
(define-fun .def_108 () Bool (= |.x{1284}| |.x{1300}|))
(define-fun .def_134 () Bool (and .def_108 .def_133))
(define-fun .def_97 () (Array Int Int) (store |.x{127}| |.x{1286}| 1))
(define-fun .def_106 () Int (select .def_97 |.x{1301}|))
(define-fun .def_107 () Bool (= .def_106 0))
(define-fun .def_135 () Bool (and .def_107 .def_134))
(define-fun .def_105 () Bool (= |.x{1288}| |.x{1290}|))
(define-fun .def_136 () Bool (and .def_105 .def_135))
(define-fun .def_104 () Bool (= |.x{1286}| |.x{1290}|))
(define-fun .def_137 () Bool (and .def_104 .def_136))
(define-fun .def_102 () Bool (= |.x{1301}| 0))
(define-fun .def_103 () Bool (not .def_102))
(define-fun .def_138 () Bool (and .def_103 .def_137))
(define-fun .def_101 () Bool (= |.x{1298}| 0))
(define-fun .def_139 () Bool (and .def_101 .def_138))
(define-fun .def_100 () Bool (= |.x{1297}| 0))
(define-fun .def_140 () Bool (and .def_100 .def_139))
(define-fun .def_98 () (Array Int Int) (store .def_97 |.x{1301}| 1))
(define-fun .def_99 () Bool (= |.x{1274}| .def_98))
(define-fun .def_141 () Bool (and .def_99 .def_140))
(define-fun .def_93 () Bool (= |.x{1286}| 0))
(define-fun .def_94 () Bool (not .def_93))
(define-fun .def_142 () Bool (and .def_94 .def_141))
(define-fun .def_143 () Bool (or |.x{1304}| .def_142))
(define-fun .def_82 () Bool (and .def_80 .def_81))
(define-fun .def_83 () Bool (and |.loc{7}| .def_82))
(define-fun .def_85 () Bool (and .def_83 .def_84))
(define-fun .def_87 () Bool (and .def_85 .def_86))
(define-fun .def_89 () Bool (and .def_87 .def_88))
(define-fun .def_91 () Bool (and .def_89 .def_90))
(define-fun .def_144 () Bool (and .def_91 .def_143))
(define-fun .def_152 () Bool (and .def_144 .def_151))
(define-fun .def_363 () Bool (or .def_152 .def_362))
(define-fun .def_377 () Bool (! (and .def_363 .def_376) :trans true))
(define-fun .def_391 () Bool (and .def_72 .def_78))
(define-fun .def_392 () Bool (and .def_76 .def_391))
(define-fun .def_393 () Bool (and .def_70 .def_392))
(define-fun .def_394 () Bool (! (not .def_393) :invar-property 0))
(assert true)
